79332.42
69 68 67 58 59 42 41 60 61 66 65 64 62 63 40 33 32 31 8 7 9 30 29 28 6 139 133 117 134 138 137 136 135 116 115 93 92 84 83 85 94 96 95 82 86 97 98 114 81 87 99 100 101 80 88 102 103 113 79 89 104 105 106 78 90 107 108 77 91 76 110 111 109 112 122 126 148 150 149 125 123 124 151 0 16 17 18 15 1 39 38 19 14 2 20 21 22 13 145 128 121 127 147 146 144 120 129 3 37 36 23 12 4 142 143 130 119 131 141 132 118 140 11 25 24 26 5 10 27 34 35 43 44 54 71 72 52 51 74 49 47 48 75 73 50 46 45 53 70 55 56 57